(declare-const term_to_project_onto Real)
(declare-const term_to_project_onto0 Real)
(declare-const tmp Int)
(declare-const term_to_project_onto1 Real)
(assert (exists
         ((|tmp'?1| Int) (|y'?2| Int) (|x'?3| Int) (phi_y?4 Int) (rem?5 Int)
            (phi_x?6 Int) (rem?7 Int) (havoc?8 Int) (z?9 Int) (w?10 Int)
            (x?11 Int) (y?12 Int))
         (and (<= (- z?9) 0) (<= (+ (- w?10) 1) 0) (<= (- x?11) 0)
                (<= (- y?12) 0) (<= (+ x?11 -100000) 0)
                (<= (+ y?12 -100000) 0)
                (or (<= (+ havoc?8 1) 0) (<= (+ (- havoc?8) 1) 0))
                (or (and (or (<= w?10 0)
                               (and (<= (- rem?7) 0)
                                      (or (<= rem?7 0) (<= (+ (- rem?7) 2) 0))
                                      (or (<= (+ rem?7 -1) 0)
                                            (<= (+ rem?7 1) 0))
                                      (is_int (/ (+ w?10 (- rem?7)) 2))))
                           (= (+ (- phi_x?6) x?11) 0))
                      (and (is_int (/ (+ w?10 -1) 2)) (<= (- w?10) 0)
                             (= (+ (- phi_x?6) x?11 1) 0)))
                (or (and (or (<= z?9 0)
                               (and (<= (- rem?5) 0)
                                      (or (<= (+ rem?5 1) 0)
                                            (<= (+ (- rem?5) 1) 0))
                                      (or (<= (+ rem?5 -1) 0)
                                            (<= (+ rem?5 1) 0))
                                      (is_int (/ (+ z?9 (- rem?5)) 2))))
                           (= (+ (- phi_y?4) y?12) 0))
                      (and (is_int (/ z?9 2)) (<= (- z?9) 0)
                             (= (+ (- phi_y?4) y?12 1) 0)))
                (= (+ |tmp'?1| (- havoc?8)) 0) (= (+ |y'?2| (- phi_y?4)) 0)
                (= (+ |x'?3| (- phi_x?6)) 0)
                (= term_to_project_onto1 (+ |x'?3| (- x?11)))
                (= term_to_project_onto0 (+ |y'?2| (- y?12)))
                (= term_to_project_onto (+ |tmp'?1| (- tmp))))))
(check-sat)
